001000011100110111011010010111001000001001101011000010101100011011100110101011111011001100001000010010001111110101111001100100000011100011100001011111000001001011001110010001110000111101011101011000100000100110101110001100100100001110001110101110001010010000010111100000011100100011101111111111011110100001001111100101000011001000000100110000010111100111011111011100001111000011110011101100001010110100010101101111111000001110111111101101101011000010111111110001110101101101000011000100111000101011010001110110100110110101001101101110010011000000000100111111111000110110000011